(declare-fun x1 () String)
(declare-fun x2 () String)
(declare-fun x3 () String)
(declare-fun x4 () String)
(declare-fun x5 () String)
(declare-fun x6 () String)
(declare-fun x7 () String)
(declare-fun x8 () String)
(declare-fun x9 () String)
(declare-fun x10 () String)
(declare-fun x11 () String)

(assert (= x1 "solution"))
(assert (= x1 (str.++ x2 x3)))
(assert (= x3 (str.++ x4 x5)))
(assert (= x5 (str.++ x6 x7)))
(assert (= x7 (str.++ x8 x9)))
(assert (= x9 (str.++ x10 x11)))

(check-sat)
(get-model)
